(set-logic QF_S)
(declare-fun var0 () String)
(assert (str.in.re var0 (re.++ (re.union (re.+ (str.to.re "0")) (re.+ (str.to.re "111"))) (re.++ (re.+ (re.+ (str.to.re "2"))) (re.++ (re.* (re.* (str.to.re "3"))) (re.++ (re.+ (re.* (str.to.re "444"))) (re.++ (re.* (re.+ (str.to.re "5"))) (re.++ (re.+ (re.union (str.to.re "66") (str.to.re "7"))) (re.++ (re.+ (re.union (str.to.re "8") (str.to.re "9"))) (re.++ (re.+ (re.+ (str.to.re "aaa"))) (re.++ (re.* (re.+ (str.to.re "bb"))) (re.++ (re.union (re.+ (str.to.re "cc")) (re.+ (str.to.re "ddd"))) (re.++ (re.union (re.union (str.to.re "ee") (str.to.re "ff")) (re.union (str.to.re "ggg") (str.to.re "hh"))) (re.++ (re.* (re.union (str.to.re "iii") (str.to.re "j"))) (re.++ (re.+ (re.+ (str.to.re "kk"))) (re.++ (re.union (re.* (str.to.re "l")) (re.* (str.to.re "m"))) (re.++ (re.union (re.* (str.to.re "nn")) (re.* (str.to.re "o"))) (re.++ (re.* (re.+ (str.to.re "ppp"))) (re.++ (re.* (re.* (str.to.re "qqq"))) (re.++ (re.union (re.+ (str.to.re "rrr")) (re.+ (str.to.re "s"))) (re.++ (re.+ (re.union (str.to.re "t") (str.to.re "u"))) (re.++ (re.+ (re.* (str.to.re "vv"))) (re.+ (re.* (str.to.re "ww")))))))))))))))))))))))))
(assert (not (str.in.re var0 (re.++ (re.+ (re.union (str.to.re "0") (str.to.re "11"))) (re.++ (re.union (re.union (str.to.re "2") (str.to.re "333")) (re.union (str.to.re "4") (str.to.re "5"))) (re.++ (re.+ (re.* (str.to.re "6"))) (re.++ (re.union (re.+ (str.to.re "7")) (re.+ (str.to.re "8"))) (re.++ (re.* (re.+ (str.to.re "99"))) (re.++ (re.+ (re.+ (str.to.re "a"))) (re.++ (re.union (re.union (str.to.re "bb") (str.to.re "c")) (re.union (str.to.re "ddd") (str.to.re "ee"))) (re.++ (re.* (re.union (str.to.re "f") (str.to.re "g"))) (re.++ (re.* (re.union (str.to.re "hhh") (str.to.re "i"))) (re.++ (re.* (re.+ (str.to.re "j"))) (re.++ (re.* (re.+ (str.to.re "kkk"))) (re.++ (re.* (re.* (str.to.re "l"))) (re.++ (re.union (re.+ (str.to.re "m")) (re.+ (str.to.re "nnn"))) (re.++ (re.union (re.+ (str.to.re "ooo")) (re.+ (str.to.re "p"))) (re.++ (re.union (re.* (str.to.re "q")) (re.* (str.to.re "r"))) (re.++ (re.+ (re.+ (str.to.re "s"))) (re.++ (re.+ (re.union (str.to.re "t") (str.to.re "u"))) (re.++ (re.* (re.* (str.to.re "v"))) (re.++ (re.+ (re.+ (str.to.re "w"))) (re.++ (re.union (re.* (str.to.re "xx")) (re.* (str.to.re "yy"))) (re.* (re.+ (str.to.re "z"))))))))))))))))))))))))))
(check-sat)